solution status: time limit reached
objective value:                            57351.305
y$4                                                 1 	(obj:5700)
y$5                                                 1 	(obj:5700)
y$6                                                 1 	(obj:5700)
y$7                                                 1 	(obj:5700)
y$8                                                 1 	(obj:5700)
y$10                                                1 	(obj:5700)
y$13                                                1 	(obj:5700)
y$14                                                1 	(obj:5700)
y$15                                                1 	(obj:5700)
y$17                                                1 	(obj:5700)
x$1$8                                               1 	(obj:2.55)
x$2$17                                              1 	(obj:3.349)
x$3$6                                               1 	(obj:2.89)
x$4$5                                               1 	(obj:2.21)
x$5$14                                              1 	(obj:2.397)
x$6$4                                               1 	(obj:10.625)
x$7$6                                               1 	(obj:1.972)
x$8$5                                               1 	(obj:3.502)
x$9$17                                              1 	(obj:3.706)
x$10$14                                             1 	(obj:4.794)
x$11$13                                             1 	(obj:1.802)
x$12$4                                              1 	(obj:2.992)
x$13$10                                             1 	(obj:4.692)
x$14$14                                             1 	(obj:2.55)
x$15$6                                              1 	(obj:4.131)
x$16$4                                              1 	(obj:2.771)
x$17$10                                             1 	(obj:3.808)
x$18$7                                              1 	(obj:6.052)
x$19$8                                              1 	(obj:2.873)
x$20$14                                             1 	(obj:2.074)
x$21$13                                             1 	(obj:2.55)
x$22$10                                             1 	(obj:3.434)
x$23$14                                             1 	(obj:1.802)
x$24$7                                              1 	(obj:4.165)
x$25$15                                             1 	(obj:5.083)
x$26$7                                              1 	(obj:2.601)
x$27$15                                             1 	(obj:6.307)
x$28$5                                              1 	(obj:1.87)
x$29$7                                              1 	(obj:2.397)
x$30$4                                              1 	(obj:2.686)
x$31$10                                             1 	(obj:6.477)
x$32$6                                              1 	(obj:3.264)
x$33$13                                             1 	(obj:4.352)
x$34$6                                              1 	(obj:2.839)
x$35$10                                             1 	(obj:5.321)
x$36$6                                              1 	(obj:2.89)
x$37$8                                              1 	(obj:2.278)
x$38$17                                             1 	(obj:3.723)
x$39$7                                              1 	(obj:5.338)
x$40$15                                             1 	(obj:3.672)
x$41$13                                             1 	(obj:4.862)
x$42$15                                             1 	(obj:3.961)
x$43$7                                              1 	(obj:3.842)
x$44$14                                             1 	(obj:2.04)
x$45$6                                              1 	(obj:2.431)
x$46$17                                             1 	(obj:6.494)
x$47$17                                             1 	(obj:6.477)
x$48$10                                             1 	(obj:2.125)
x$49$4                                              1 	(obj:2.618)
x$50$7                                              1 	(obj:2.006)
x$51$4                                              1 	(obj:1.989)
x$52$5                                              1 	(obj:3.077)
x$53$13                                             1 	(obj:2.618)
x$54$8                                              1 	(obj:2.346)
x$55$5                                              1 	(obj:6.46)
x$56$13                                             1 	(obj:2.992)
x$57$15                                             1 	(obj:4.131)
x$58$14                                             1 	(obj:5.117)
x$59$17                                             1 	(obj:2.771)
x$60$7                                              1 	(obj:2.125)
x$61$8                                              1 	(obj:1.802)
x$62$13                                             1 	(obj:2.278)
x$63$4                                              1 	(obj:1.819)
x$64$10                                             1 	(obj:4.59)
x$65$15                                             1 	(obj:6.358)
x$66$5                                              1 	(obj:1.853)
x$67$4                                              1 	(obj:2.822)
x$68$15                                             1 	(obj:1.887)
x$69$14                                             1 	(obj:2.006)
x$70$8                                              1 	(obj:3.927)
x$71$17                                             1 	(obj:2.737)
x$72$4                                              1 	(obj:2.754)
x$73$8                                              1 	(obj:4.199)
x$74$17                                             1 	(obj:2.023)
x$75$5                                              1 	(obj:1.802)
x$76$8                                              1 	(obj:4.488)
x$77$17                                             1 	(obj:1.887)
x$78$17                                             1 	(obj:2.023)
x$79$6                                              1 	(obj:2.873)
x$80$10                                             1 	(obj:1.989)
x$81$14                                             1 	(obj:2.72)
x$82$15                                             1 	(obj:2.448)
x$83$15                                             1 	(obj:6.256)
x$84$5                                              1 	(obj:5.627)
x$85$10                                             1 	(obj:3.638)
x$86$5                                              1 	(obj:4.743)
x$87$8                                              1 	(obj:5.287)
x$88$10                                             1 	(obj:1.853)
x$89$10                                             1 	(obj:4.284)
x$90$14                                             1 	(obj:3.502)
x$91$7                                              1 	(obj:4.998)
x$92$17                                             1 	(obj:2.244)
x$93$5                                              1 	(obj:3.842)
x$94$4                                              1 	(obj:1.853)
x$95$13                                             1 	(obj:5.049)
x$96$15                                             1 	(obj:2.635)
x$97$6                                              1 	(obj:4.182)
x$98$7                                              1 	(obj:5.644)
x$99$13                                             1 	(obj:4.08)
x$100$8                                             1 	(obj:5.032)
